unsat
(:SPACER-concretize                   43
 :SPACER-conj                         18
 :SPACER-expand-pob-undef             31
 :SPACER-inductive-gen                137
 :SPACER-inductive-gen-weaken-fail    277
 :SPACER-inductive-gen-weaken-success 2
 :SPACER-inductive-level              8
 :SPACER-max-depth                    10
 :SPACER-max-query-lvl                10
 :SPACER-non-local-gen                10
 :SPACER-num-active-lemmas            42
 :SPACER-num-ctp-blocked              48
 :SPACER-num-invariants               54
 :SPACER-num-is_invariant             399
 :SPACER-num-lemma-jumped             5
 :SPACER-num-lemmas                   147
 :SPACER-num-non-lin                  20
 :SPACER-num-pobs                     160
 :SPACER-num-propagations             178
 :SPACER-num-queries                  116
 :SPACER-num-reach-queries            24
 :SPACER-num-reuse-reach-facts        24
 :SPACER-subsume-failed               6
 :SPACER-subsume-pob                  11
 :SPACER-subsume-success              7
 :added-eqs                           332564
 :arith-assert-diseq                  35394
 :arith-assert-lower                  196102
 :arith-assert-upper                  153378
 :arith-bound-prop                    18212
 :arith-branch-var                    1394
 :arith-conflicts                     794
 :arith-eq-adapter                    34622
 :arith-fixed-eqs                     90538
 :arith-gcd-conflicts                 204
 :arith-gcd-tests                     97136
 :arith-gomory-cuts                   1104
 :arith-ineq-splits                   1394
 :arith-num-rows                      518
 :arith-offset-eqs                    64300
 :arith-patches                       2706
 :arith-patches_succ                  34
 :arith-pivots                        14120
 :arith-row-summations                513354
 :arith-tableau-max-columns           772
 :arith-tableau-max-rows              518
 :conflicts                           3616
 :decisions                           371230
 :del-clause                          96460
 :final-checks                        4210
 :iuc_solver.num_proxies              415
 :max-memory                          45.23
 :memory                              43.59
 :minimized-lits                      4008
 :mk-bool-var                         83936
 :mk-clause                           111074
 :num-allocs                          4208606490
 :num-checks                          2742
 :pool_solver.checks                  1371
 :pool_solver.checks.sat              210
 :pool_solver.checks.undef            458
 :propagations                        981806
 :rlimit-count                        11955879
 :time                                3.85
 :time.iuc_solver.get_iuc             0.17
 :time.iuc_solver.get_iuc.hyp_reduce1 0.06
 :time.iuc_solver.get_iuc.hyp_reduce2 0.09
 :time.iuc_solver.get_iuc.learn_core  0.03
 :time.pool_solver.proof              0.03
 :time.pool_solver.smt.total          3.04
 :time.pool_solver.smt.total.sat      1.42
 :time.pool_solver.smt.total.undef    1.05
 :time.spacer.ctp                     0.01
 :time.spacer.init_rules              0.00
 :time.spacer.mbp                     0.02
 :time.spacer.solve                   3.81
 :time.spacer.solve.propagate         1.04
 :time.spacer.solve.reach             2.76
 :time.spacer.solve.reach.children    0.06
 :time.spacer.solve.reach.cluster     0.14
 :time.spacer.solve.reach.gen.global  0.11
 :time.spacer.solve.reach.gen.ind     1.31
 :time.spacer.solve.reach.is-reach    0.06)
(:max-memory   45.23
 :memory       43.59
 :num-allocs   4208606490
 :rlimit-count 11955879
 :time         3.85
 :total-time   3.86)
